c *********************************
c * Circuit generated by BenCGen
c *
c * Parity_191
c *
c * Ports with 1 gate(s): 1
c * Ports with 2 gate(s): 191
c * Total gates: 192
c *********************************
p cnf 383 765
1 194 0
-1 -194 0
1 -193 0
194 -193 0
-1 -194 193 0
1 2 -195 0
-1 2 195 0
1 -2 195 0
-1 -2 -195 0
3 4 -196 0
-3 4 196 0
3 -4 196 0
-3 -4 -196 0
5 6 -197 0
-5 6 197 0
5 -6 197 0
-5 -6 -197 0
7 8 -198 0
-7 8 198 0
7 -8 198 0
-7 -8 -198 0
9 10 -199 0
-9 10 199 0
9 -10 199 0
-9 -10 -199 0
11 12 -200 0
-11 12 200 0
11 -12 200 0
-11 -12 -200 0
13 14 -201 0
-13 14 201 0
13 -14 201 0
-13 -14 -201 0
15 16 -202 0
-15 16 202 0
15 -16 202 0
-15 -16 -202 0
17 18 -203 0
-17 18 203 0
17 -18 203 0
-17 -18 -203 0
19 20 -204 0
-19 20 204 0
19 -20 204 0
-19 -20 -204 0
21 22 -205 0
-21 22 205 0
21 -22 205 0
-21 -22 -205 0
23 24 -206 0
-23 24 206 0
23 -24 206 0
-23 -24 -206 0
25 26 -207 0
-25 26 207 0
25 -26 207 0
-25 -26 -207 0
27 28 -208 0
-27 28 208 0
27 -28 208 0
-27 -28 -208 0
29 30 -209 0
-29 30 209 0
29 -30 209 0
-29 -30 -209 0
31 32 -210 0
-31 32 210 0
31 -32 210 0
-31 -32 -210 0
33 34 -211 0
-33 34 211 0
33 -34 211 0
-33 -34 -211 0
35 36 -212 0
-35 36 212 0
35 -36 212 0
-35 -36 -212 0
37 38 -213 0
-37 38 213 0
37 -38 213 0
-37 -38 -213 0
39 40 -214 0
-39 40 214 0
39 -40 214 0
-39 -40 -214 0
41 42 -215 0
-41 42 215 0
41 -42 215 0
-41 -42 -215 0
43 44 -216 0
-43 44 216 0
43 -44 216 0
-43 -44 -216 0
45 46 -217 0
-45 46 217 0
45 -46 217 0
-45 -46 -217 0
47 48 -218 0
-47 48 218 0
47 -48 218 0
-47 -48 -218 0
49 50 -219 0
-49 50 219 0
49 -50 219 0
-49 -50 -219 0
51 52 -220 0
-51 52 220 0
51 -52 220 0
-51 -52 -220 0
53 54 -221 0
-53 54 221 0
53 -54 221 0
-53 -54 -221 0
55 56 -222 0
-55 56 222 0
55 -56 222 0
-55 -56 -222 0
57 58 -223 0
-57 58 223 0
57 -58 223 0
-57 -58 -223 0
59 60 -224 0
-59 60 224 0
59 -60 224 0
-59 -60 -224 0
61 62 -225 0
-61 62 225 0
61 -62 225 0
-61 -62 -225 0
63 64 -226 0
-63 64 226 0
63 -64 226 0
-63 -64 -226 0
65 66 -227 0
-65 66 227 0
65 -66 227 0
-65 -66 -227 0
67 68 -228 0
-67 68 228 0
67 -68 228 0
-67 -68 -228 0
69 70 -229 0
-69 70 229 0
69 -70 229 0
-69 -70 -229 0
71 72 -230 0
-71 72 230 0
71 -72 230 0
-71 -72 -230 0
73 74 -231 0
-73 74 231 0
73 -74 231 0
-73 -74 -231 0
75 76 -232 0
-75 76 232 0
75 -76 232 0
-75 -76 -232 0
77 78 -233 0
-77 78 233 0
77 -78 233 0
-77 -78 -233 0
79 80 -234 0
-79 80 234 0
79 -80 234 0
-79 -80 -234 0
81 82 -235 0
-81 82 235 0
81 -82 235 0
-81 -82 -235 0
83 84 -236 0
-83 84 236 0
83 -84 236 0
-83 -84 -236 0
85 86 -237 0
-85 86 237 0
85 -86 237 0
-85 -86 -237 0
87 88 -238 0
-87 88 238 0
87 -88 238 0
-87 -88 -238 0
89 90 -239 0
-89 90 239 0
89 -90 239 0
-89 -90 -239 0
91 92 -240 0
-91 92 240 0
91 -92 240 0
-91 -92 -240 0
93 94 -241 0
-93 94 241 0
93 -94 241 0
-93 -94 -241 0
95 96 -242 0
-95 96 242 0
95 -96 242 0
-95 -96 -242 0
97 98 -243 0
-97 98 243 0
97 -98 243 0
-97 -98 -243 0
99 100 -244 0
-99 100 244 0
99 -100 244 0
-99 -100 -244 0
101 102 -245 0
-101 102 245 0
101 -102 245 0
-101 -102 -245 0
103 104 -246 0
-103 104 246 0
103 -104 246 0
-103 -104 -246 0
105 106 -247 0
-105 106 247 0
105 -106 247 0
-105 -106 -247 0
107 108 -248 0
-107 108 248 0
107 -108 248 0
-107 -108 -248 0
109 110 -249 0
-109 110 249 0
109 -110 249 0
-109 -110 -249 0
111 112 -250 0
-111 112 250 0
111 -112 250 0
-111 -112 -250 0
113 114 -251 0
-113 114 251 0
113 -114 251 0
-113 -114 -251 0
115 116 -252 0
-115 116 252 0
115 -116 252 0
-115 -116 -252 0
117 118 -253 0
-117 118 253 0
117 -118 253 0
-117 -118 -253 0
119 120 -254 0
-119 120 254 0
119 -120 254 0
-119 -120 -254 0
121 122 -255 0
-121 122 255 0
121 -122 255 0
-121 -122 -255 0
123 124 -256 0
-123 124 256 0
123 -124 256 0
-123 -124 -256 0
125 126 -257 0
-125 126 257 0
125 -126 257 0
-125 -126 -257 0
127 128 -258 0
-127 128 258 0
127 -128 258 0
-127 -128 -258 0
129 130 -259 0
-129 130 259 0
129 -130 259 0
-129 -130 -259 0
131 132 -260 0
-131 132 260 0
131 -132 260 0
-131 -132 -260 0
133 134 -261 0
-133 134 261 0
133 -134 261 0
-133 -134 -261 0
135 136 -262 0
-135 136 262 0
135 -136 262 0
-135 -136 -262 0
137 138 -263 0
-137 138 263 0
137 -138 263 0
-137 -138 -263 0
139 140 -264 0
-139 140 264 0
139 -140 264 0
-139 -140 -264 0
141 142 -265 0
-141 142 265 0
141 -142 265 0
-141 -142 -265 0
143 144 -266 0
-143 144 266 0
143 -144 266 0
-143 -144 -266 0
145 146 -267 0
-145 146 267 0
145 -146 267 0
-145 -146 -267 0
147 148 -268 0
-147 148 268 0
147 -148 268 0
-147 -148 -268 0
149 150 -269 0
-149 150 269 0
149 -150 269 0
-149 -150 -269 0
151 152 -270 0
-151 152 270 0
151 -152 270 0
-151 -152 -270 0
153 154 -271 0
-153 154 271 0
153 -154 271 0
-153 -154 -271 0
155 156 -272 0
-155 156 272 0
155 -156 272 0
-155 -156 -272 0
157 158 -273 0
-157 158 273 0
157 -158 273 0
-157 -158 -273 0
159 160 -274 0
-159 160 274 0
159 -160 274 0
-159 -160 -274 0
161 162 -275 0
-161 162 275 0
161 -162 275 0
-161 -162 -275 0
163 164 -276 0
-163 164 276 0
163 -164 276 0
-163 -164 -276 0
165 166 -277 0
-165 166 277 0
165 -166 277 0
-165 -166 -277 0
167 168 -278 0
-167 168 278 0
167 -168 278 0
-167 -168 -278 0
169 170 -279 0
-169 170 279 0
169 -170 279 0
-169 -170 -279 0
171 172 -280 0
-171 172 280 0
171 -172 280 0
-171 -172 -280 0
173 174 -281 0
-173 174 281 0
173 -174 281 0
-173 -174 -281 0
175 176 -282 0
-175 176 282 0
175 -176 282 0
-175 -176 -282 0
177 178 -283 0
-177 178 283 0
177 -178 283 0
-177 -178 -283 0
179 180 -284 0
-179 180 284 0
179 -180 284 0
-179 -180 -284 0
181 182 -285 0
-181 182 285 0
181 -182 285 0
-181 -182 -285 0
183 184 -286 0
-183 184 286 0
183 -184 286 0
-183 -184 -286 0
185 186 -287 0
-185 186 287 0
185 -186 287 0
-185 -186 -287 0
187 188 -288 0
-187 188 288 0
187 -188 288 0
-187 -188 -288 0
189 190 -289 0
-189 190 289 0
189 -190 289 0
-189 -190 -289 0
195 196 -290 0
-195 196 290 0
195 -196 290 0
-195 -196 -290 0
197 198 -291 0
-197 198 291 0
197 -198 291 0
-197 -198 -291 0
199 200 -292 0
-199 200 292 0
199 -200 292 0
-199 -200 -292 0
201 202 -293 0
-201 202 293 0
201 -202 293 0
-201 -202 -293 0
203 204 -294 0
-203 204 294 0
203 -204 294 0
-203 -204 -294 0
205 206 -295 0
-205 206 295 0
205 -206 295 0
-205 -206 -295 0
207 208 -296 0
-207 208 296 0
207 -208 296 0
-207 -208 -296 0
209 210 -297 0
-209 210 297 0
209 -210 297 0
-209 -210 -297 0
211 212 -298 0
-211 212 298 0
211 -212 298 0
-211 -212 -298 0
213 214 -299 0
-213 214 299 0
213 -214 299 0
-213 -214 -299 0
215 216 -300 0
-215 216 300 0
215 -216 300 0
-215 -216 -300 0
217 218 -301 0
-217 218 301 0
217 -218 301 0
-217 -218 -301 0
219 220 -302 0
-219 220 302 0
219 -220 302 0
-219 -220 -302 0
221 222 -303 0
-221 222 303 0
221 -222 303 0
-221 -222 -303 0
223 224 -304 0
-223 224 304 0
223 -224 304 0
-223 -224 -304 0
225 226 -305 0
-225 226 305 0
225 -226 305 0
-225 -226 -305 0
227 228 -306 0
-227 228 306 0
227 -228 306 0
-227 -228 -306 0
229 230 -307 0
-229 230 307 0
229 -230 307 0
-229 -230 -307 0
231 232 -308 0
-231 232 308 0
231 -232 308 0
-231 -232 -308 0
233 234 -309 0
-233 234 309 0
233 -234 309 0
-233 -234 -309 0
235 236 -310 0
-235 236 310 0
235 -236 310 0
-235 -236 -310 0
237 238 -311 0
-237 238 311 0
237 -238 311 0
-237 -238 -311 0
239 240 -312 0
-239 240 312 0
239 -240 312 0
-239 -240 -312 0
241 242 -313 0
-241 242 313 0
241 -242 313 0
-241 -242 -313 0
243 244 -314 0
-243 244 314 0
243 -244 314 0
-243 -244 -314 0
245 246 -315 0
-245 246 315 0
245 -246 315 0
-245 -246 -315 0
247 248 -316 0
-247 248 316 0
247 -248 316 0
-247 -248 -316 0
249 250 -317 0
-249 250 317 0
249 -250 317 0
-249 -250 -317 0
251 252 -318 0
-251 252 318 0
251 -252 318 0
-251 -252 -318 0
253 254 -319 0
-253 254 319 0
253 -254 319 0
-253 -254 -319 0
255 256 -320 0
-255 256 320 0
255 -256 320 0
-255 -256 -320 0
257 258 -321 0
-257 258 321 0
257 -258 321 0
-257 -258 -321 0
259 260 -322 0
-259 260 322 0
259 -260 322 0
-259 -260 -322 0
261 262 -323 0
-261 262 323 0
261 -262 323 0
-261 -262 -323 0
263 264 -324 0
-263 264 324 0
263 -264 324 0
-263 -264 -324 0
265 266 -325 0
-265 266 325 0
265 -266 325 0
-265 -266 -325 0
267 268 -326 0
-267 268 326 0
267 -268 326 0
-267 -268 -326 0
269 270 -327 0
-269 270 327 0
269 -270 327 0
-269 -270 -327 0
271 272 -328 0
-271 272 328 0
271 -272 328 0
-271 -272 -328 0
273 274 -329 0
-273 274 329 0
273 -274 329 0
-273 -274 -329 0
275 276 -330 0
-275 276 330 0
275 -276 330 0
-275 -276 -330 0
277 278 -331 0
-277 278 331 0
277 -278 331 0
-277 -278 -331 0
279 280 -332 0
-279 280 332 0
279 -280 332 0
-279 -280 -332 0
281 282 -333 0
-281 282 333 0
281 -282 333 0
-281 -282 -333 0
283 284 -334 0
-283 284 334 0
283 -284 334 0
-283 -284 -334 0
285 286 -335 0
-285 286 335 0
285 -286 335 0
-285 -286 -335 0
287 288 -336 0
-287 288 336 0
287 -288 336 0
-287 -288 -336 0
289 191 -337 0
-289 191 337 0
289 -191 337 0
-289 -191 -337 0
290 291 -338 0
-290 291 338 0
290 -291 338 0
-290 -291 -338 0
292 293 -339 0
-292 293 339 0
292 -293 339 0
-292 -293 -339 0
294 295 -340 0
-294 295 340 0
294 -295 340 0
-294 -295 -340 0
296 297 -341 0
-296 297 341 0
296 -297 341 0
-296 -297 -341 0
298 299 -342 0
-298 299 342 0
298 -299 342 0
-298 -299 -342 0
300 301 -343 0
-300 301 343 0
300 -301 343 0
-300 -301 -343 0
302 303 -344 0
-302 303 344 0
302 -303 344 0
-302 -303 -344 0
304 305 -345 0
-304 305 345 0
304 -305 345 0
-304 -305 -345 0
306 307 -346 0
-306 307 346 0
306 -307 346 0
-306 -307 -346 0
308 309 -347 0
-308 309 347 0
308 -309 347 0
-308 -309 -347 0
310 311 -348 0
-310 311 348 0
310 -311 348 0
-310 -311 -348 0
312 313 -349 0
-312 313 349 0
312 -313 349 0
-312 -313 -349 0
314 315 -350 0
-314 315 350 0
314 -315 350 0
-314 -315 -350 0
316 317 -351 0
-316 317 351 0
316 -317 351 0
-316 -317 -351 0
318 319 -352 0
-318 319 352 0
318 -319 352 0
-318 -319 -352 0
320 321 -353 0
-320 321 353 0
320 -321 353 0
-320 -321 -353 0
322 323 -354 0
-322 323 354 0
322 -323 354 0
-322 -323 -354 0
324 325 -355 0
-324 325 355 0
324 -325 355 0
-324 -325 -355 0
326 327 -356 0
-326 327 356 0
326 -327 356 0
-326 -327 -356 0
328 329 -357 0
-328 329 357 0
328 -329 357 0
-328 -329 -357 0
330 331 -358 0
-330 331 358 0
330 -331 358 0
-330 -331 -358 0
332 333 -359 0
-332 333 359 0
332 -333 359 0
-332 -333 -359 0
334 335 -360 0
-334 335 360 0
334 -335 360 0
-334 -335 -360 0
336 337 -361 0
-336 337 361 0
336 -337 361 0
-336 -337 -361 0
338 339 -362 0
-338 339 362 0
338 -339 362 0
-338 -339 -362 0
340 341 -363 0
-340 341 363 0
340 -341 363 0
-340 -341 -363 0
342 343 -364 0
-342 343 364 0
342 -343 364 0
-342 -343 -364 0
344 345 -365 0
-344 345 365 0
344 -345 365 0
-344 -345 -365 0
346 347 -366 0
-346 347 366 0
346 -347 366 0
-346 -347 -366 0
348 349 -367 0
-348 349 367 0
348 -349 367 0
-348 -349 -367 0
350 351 -368 0
-350 351 368 0
350 -351 368 0
-350 -351 -368 0
352 353 -369 0
-352 353 369 0
352 -353 369 0
-352 -353 -369 0
354 355 -370 0
-354 355 370 0
354 -355 370 0
-354 -355 -370 0
356 357 -371 0
-356 357 371 0
356 -357 371 0
-356 -357 -371 0
358 359 -372 0
-358 359 372 0
358 -359 372 0
-358 -359 -372 0
360 361 -373 0
-360 361 373 0
360 -361 373 0
-360 -361 -373 0
362 363 -374 0
-362 363 374 0
362 -363 374 0
-362 -363 -374 0
364 365 -375 0
-364 365 375 0
364 -365 375 0
-364 -365 -375 0
366 367 -376 0
-366 367 376 0
366 -367 376 0
-366 -367 -376 0
368 369 -377 0
-368 369 377 0
368 -369 377 0
-368 -369 -377 0
370 371 -378 0
-370 371 378 0
370 -371 378 0
-370 -371 -378 0
372 373 -379 0
-372 373 379 0
372 -373 379 0
-372 -373 -379 0
374 375 -380 0
-374 375 380 0
374 -375 380 0
-374 -375 -380 0
376 377 -381 0
-376 377 381 0
376 -377 381 0
-376 -377 -381 0
378 379 -382 0
-378 379 382 0
378 -379 382 0
-378 -379 -382 0
380 381 -383 0
-380 381 383 0
380 -381 383 0
-380 -381 -383 0
383 382 -192 0
-383 382 192 0
383 -382 192 0
-383 -382 -192 0
